c Bipartite assignment problem - 5x5
c 5 workers (nodes 1-5) to 5 tasks (nodes 6-10)
c Cost matrix generated with random costs in range [1, 10]
p min 10 25
n 1 1
n 2 1
n 3 1
n 4 1
n 5 1
n 6 -1
n 7 -1
n 8 -1
n 9 -1
n 10 -1
a 1 6 0 1 7
a 1 7 0 1 2
a 1 8 0 1 2
a 1 9 0 1 6
a 1 10 0 1 2
a 2 6 0 1 3
a 2 7 0 1 8
a 2 8 0 1 6
a 2 9 0 1 2
a 2 10 0 1 8
a 3 6 0 1 3
a 3 7 0 1 3
a 3 8 0 1 6
a 3 9 0 1 4
a 3 10 0 1 4
a 4 6 0 1 3
a 4 7 0 1 6
a 4 8 0 1 1
a 4 9 0 1 9
a 4 10 0 1 6
a 5 6 0 1 4
a 5 7 0 1 2
a 5 8 0 1 1
a 5 9 0 1 8
a 5 10 0 1 9